certificates/rado_a12_c172_N33.cnf
c Rad2 upper bound instance: x1 + 12*x2 - x3 = 172, interval [1,33]
p cnf 33 180
1 9 15 0
-1 -9 -15 0
1 16 21 0
-1 -16 -21 0
1 17 33 0
-1 -17 -33 0
2 10 15 0
-2 -10 -15 0
2 16 22 0
-2 -16 -22 0
3 11 15 0
-3 -11 -15 0
3 16 23 0
-3 -16 -23 0
4 12 15 0
-4 -12 -15 0
4 16 24 0
-4 -16 -24 0
1 5 14 0
-1 -5 -14 0
5 13 15 0
-5 -13 -15 0
5 16 25 0
-5 -16 -25 0
2 6 14 0
-2 -6 -14 0
6 14 15 0
-6 -14 -15 0
6 16 26 0
-6 -16 -26 0
3 7 14 0
-3 -7 -14 0
7 15 0
-7 -15 0
7 16 27 0
-7 -16 -27 0
4 8 14 0
-4 -8 -14 0
8 15 16 0
-8 -15 -16 0
8 16 28 0
-8 -16 -28 0
5 9 14 0
-5 -9 -14 0
9 15 17 0
-9 -15 -17 0
9 16 29 0
-9 -16 -29 0
6 10 14 0
-6 -10 -14 0
10 15 18 0
-10 -15 -18 0
10 16 30 0
-10 -16 -30 0
7 11 14 0
-7 -11 -14 0
11 15 19 0
-11 -15 -19 0
11 16 31 0
-11 -16 -31 0
8 12 14 0
-8 -12 -14 0
12 15 20 0
-12 -15 -20 0
12 16 32 0
-12 -16 -32 0
9 13 14 0
-9 -13 -14 0
13 15 21 0
-13 -15 -21 0
13 16 33 0
-13 -16 -33 0
10 14 0
-10 -14 0
14 15 22 0
-14 -15 -22 0
11 14 15 0
-11 -14 -15 0
15 23 0
-15 -23 0
12 14 16 0
-12 -14 -16 0
15 16 24 0
-15 -16 -24 0
1 13 17 0
-1 -13 -17 0
13 14 17 0
-13 -14 -17 0
15 17 25 0
-15 -17 -25 0
2 13 18 0
-2 -13 -18 0
14 18 0
-14 -18 0
15 18 26 0
-15 -18 -26 0
3 13 19 0
-3 -13 -19 0
14 15 19 0
-14 -15 -19 0
15 19 27 0
-15 -19 -27 0
4 13 20 0
-4 -13 -20 0
14 16 20 0
-14 -16 -20 0
15 20 28 0
-15 -20 -28 0
5 13 21 0
-5 -13 -21 0
14 17 21 0
-14 -17 -21 0
15 21 29 0
-15 -21 -29 0
6 13 22 0
-6 -13 -22 0
14 18 22 0
-14 -18 -22 0
15 22 30 0
-15 -22 -30 0
7 13 23 0
-7 -13 -23 0
14 19 23 0
-14 -19 -23 0
15 23 31 0
-15 -23 -31 0
8 13 24 0
-8 -13 -24 0
14 20 24 0
-14 -20 -24 0
15 24 32 0
-15 -24 -32 0
9 13 25 0
-9 -13 -25 0
14 21 25 0
-14 -21 -25 0
15 25 33 0
-15 -25 -33 0
10 13 26 0
-10 -13 -26 0
14 22 26 0
-14 -22 -26 0
11 13 27 0
-11 -13 -27 0
14 23 27 0
-14 -23 -27 0
12 13 28 0
-12 -13 -28 0
14 24 28 0
-14 -24 -28 0
1 12 29 0
-1 -12 -29 0
13 29 0
-13 -29 0
14 25 29 0
-14 -25 -29 0
2 12 30 0
-2 -12 -30 0
13 14 30 0
-13 -14 -30 0
14 26 30 0
-14 -26 -30 0
3 12 31 0
-3 -12 -31 0
13 15 31 0
-13 -15 -31 0
14 27 31 0
-14 -27 -31 0
4 12 32 0
-4 -12 -32 0
13 16 32 0
-13 -16 -32 0
14 28 32 0
-14 -28 -32 0
5 12 33 0
-5 -12 -33 0
13 17 33 0
-13 -17 -33 0
14 29 33 0
-14 -29 -33 0
