certificates/rado_a12_c172_N33.drat
-29 -33 0
15 -13 0
-13 -33 0
d -16 -13 -33 0
-33 0
-13 0
29 0
17 0
16 0
-9 0
14 0
25 0
-10 0
-18 0
0
